p cnf 647 1613
a 1 2 3 4 5 6 7 8 9 10 11 12 13 14 15 16 17 18 19 20 21 22 23 24 25 26 27 28 29 30 31 32 33 34 35 36 37 38 39 40 41 42 43 44 45 46 47 48 49 50 51 52 53 54 55 56 57 58 59 60 61 62 63 64 65 66 67 68 69 70 71 72 73 74 75 76 77 78 79 80 81 82 83 84 85 86 87 88 89 90 91 92 93 94 95 96 97 98 99 100 101 102 103 104 105 106 107 108 109 110 111 112 113 114 115 116 117 118 119 120 121 122 123 124 125 126 127 128 0
e 129 130 131 132 133 134 135 136 137 138 139 140 141 142 143 144 145 146 147 148 149 150 151 152 153 154 155 156 157 158 159 160 161 162 163 164 165 166 167 168 169 170 171 172 173 174 175 176 177 178 179 180 181 182 183 184 185 186 187 188 189 190 191 192 193 194 195 196 197 198 199 200 201 202 203 204 205 206 207 208 209 210 211 212 213 214 215 216 217 218 219 220 221 222 223 224 225 226 227 228 229 230 231 232 233 234 235 236 237 238 239 240 241 242 243 244 245 246 247 248 249 250 251 252 253 254 255 256 257 258 259 260 261 262 263 264 265 266 267 268 269 270 271 272 273 274 275 276 277 278 279 280 281 282 283 284 285 286 287 288 289 290 291 292 293 294 295 296 297 298 299 300 301 302 303 304 305 306 307 308 309 310 311 312 313 314 315 316 317 318 319 320 321 322 323 324 325 326 327 328 329 330 331 332 333 334 335 336 337 338 339 340 341 342 343 344 345 346 347 348 349 350 351 352 353 354 355 356 357 358 359 360 361 362 363 364 365 366 367 368 369 370 371 372 373 374 375 376 377 378 379 380 381 382 383 384 385 386 387 388 389 390 391 392 393 394 395 396 397 398 399 400 401 402 403 404 405 406 407 408 409 410 411 412 413 414 415 416 417 418 419 420 421 422 423 424 425 426 427 428 429 430 431 432 433 434 435 436 437 438 439 440 441 442 443 444 445 446 447 448 449 450 451 452 453 454 455 456 457 458 459 460 461 462 463 464 465 466 467 468 469 470 471 472 473 474 475 476 477 478 479 480 481 482 483 484 485 486 487 488 489 490 491 492 493 494 495 496 497 498 499 500 501 502 503 504 505 506 507 508 509 510 511 512 513 514 515 516 517 518 519 520 521 522 523 524 525 526 527 528 529 530 531 532 533 534 535 536 537 538 539 540 541 542 543 544 545 546 547 548 549 550 551 552 553 554 555 556 557 558 559 560 561 562 563 564 565 566 567 568 569 570 571 572 573 574 575 576 577 578 579 580 581 582 583 584 585 586 587 588 589 590 591 592 593 594 595 596 597 598 599 600 601 602 603 604 605 606 607 608 609 610 611 612 613 614 615 616 617 618 619 620 621 622 623 624 625 626 627 628 629 630 631 632 633 634 635 636 637 638 639 640 641 642 643 644 645 646 647 0
-1 2 -3 4 5 6 7 8 9 10 11 12 13 14 15 16 17 18 19 20 21 22 23 24 25 26 27 28 29 30 31 32 33 34 35 36 37 38 39 40 41 42 43 44 45 46 47 48 49 50 51 52 53 54 55 56 57 58 59 60 61 62 63 64 129 0
-64 -129 0
-63 -129 0
-62 -129 0
-61 -129 0
-60 -129 0
-59 -129 0
-58 -129 0
-57 -129 0
-56 -129 0
-55 -129 0
-54 -129 0
-53 -129 0
-52 -129 0
-51 -129 0
-50 -129 0
-49 -129 0
-48 -129 0
-47 -129 0
-46 -129 0
-45 -129 0
-44 -129 0
-43 -129 0
-42 -129 0
-41 -129 0
-40 -129 0
-39 -129 0
-38 -129 0
-37 -129 0
-36 -129 0
-35 -129 0
-34 -129 0
-33 -129 0
-32 -129 0
-31 -129 0
-30 -129 0
-29 -129 0
-28 -129 0
-27 -129 0
-26 -129 0
-25 -129 0
-24 -129 0
-23 -129 0
-22 -129 0
-21 -129 0
-20 -129 0
-19 -129 0
-18 -129 0
-17 -129 0
-16 -129 0
-15 -129 0
-14 -129 0
-13 -129 0
-12 -129 0
-11 -129 0
-10 -129 0
-9 -129 0
-8 -129 0
-7 -129 0
-6 -129 0
-5 -129 0
-4 -129 0
3 -129 0
-2 -129 0
1 -129 0
65 -66 -67 68 69 70 71 72 73 74 75 76 77 78 79 80 81 82 83 84 85 86 87 88 89 90 91 92 93 94 95 96 97 98 99 100 101 102 103 104 105 106 107 108 109 110 111 112 113 114 115 116 117 118 119 120 121 122 123 124 125 126 127 128 130 0
-128 -130 0
-127 -130 0
-126 -130 0
-125 -130 0
-124 -130 0
-123 -130 0
-122 -130 0
-121 -130 0
-120 -130 0
-119 -130 0
-118 -130 0
-117 -130 0
-116 -130 0
-115 -130 0
-114 -130 0
-113 -130 0
-112 -130 0
-111 -130 0
-110 -130 0
-109 -130 0
-108 -130 0
-107 -130 0
-106 -130 0
-105 -130 0
-104 -130 0
-103 -130 0
-102 -130 0
-101 -130 0
-100 -130 0
-99 -130 0
-98 -130 0
-97 -130 0
-96 -130 0
-95 -130 0
-94 -130 0
-93 -130 0
-92 -130 0
-91 -130 0
-90 -130 0
-89 -130 0
-88 -130 0
-87 -130 0
-86 -130 0
-85 -130 0
-84 -130 0
-83 -130 0
-82 -130 0
-81 -130 0
-80 -130 0
-79 -130 0
-78 -130 0
-77 -130 0
-76 -130 0
-75 -130 0
-74 -130 0
-73 -130 0
-72 -130 0
-71 -130 0
-70 -130 0
-69 -130 0
-68 -130 0
67 -130 0
66 -130 0
-65 -130 0
-129 -130 131 0
130 -131 0
129 -131 0
1 -65 132 0
-1 -132 0
65 -132 0
1 133 0
-65 133 0
-132 133 0
-1 65 132 -133 0
2 -66 134 0
-2 -134 0
66 -134 0
-66 -133 135 0
133 -135 0
66 -135 0
2 -133 136 0
133 -136 0
-2 -136 0
-136 137 0
-135 137 0
-134 137 0
134 135 136 -137 0
3 -67 138 0
-3 -138 0
67 -138 0
-67 -137 139 0
137 -139 0
67 -139 0
3 -137 140 0
137 -140 0
-3 -140 0
-140 141 0
-139 141 0
-138 141 0
138 139 140 -141 0
4 -68 142 0
-4 -142 0
68 -142 0
-68 -141 143 0
141 -143 0
68 -143 0
4 -141 144 0
141 -144 0
-4 -144 0
-144 145 0
-143 145 0
-142 145 0
142 143 144 -145 0
5 -69 146 0
-5 -146 0
69 -146 0
-69 -145 147 0
145 -147 0
69 -147 0
5 -145 148 0
145 -148 0
-5 -148 0
-148 149 0
-147 149 0
-146 149 0
146 147 148 -149 0
6 -70 150 0
-6 -150 0
70 -150 0
-70 -149 151 0
149 -151 0
70 -151 0
6 -149 152 0
149 -152 0
-6 -152 0
-152 153 0
-151 153 0
-150 153 0
150 151 152 -153 0
7 -71 154 0
-7 -154 0
71 -154 0
-71 -153 155 0
153 -155 0
71 -155 0
7 -153 156 0
153 -156 0
-7 -156 0
-156 157 0
-155 157 0
-154 157 0
154 155 156 -157 0
8 -72 158 0
-8 -158 0
72 -158 0
-72 -157 159 0
157 -159 0
72 -159 0
8 -157 160 0
157 -160 0
-8 -160 0
-160 161 0
-159 161 0
-158 161 0
158 159 160 -161 0
9 -73 162 0
-9 -162 0
73 -162 0
-73 -161 163 0
161 -163 0
73 -163 0
9 -161 164 0
161 -164 0
-9 -164 0
-164 165 0
-163 165 0
-162 165 0
162 163 164 -165 0
10 -74 166 0
-10 -166 0
74 -166 0
-74 -165 167 0
165 -167 0
74 -167 0
10 -165 168 0
165 -168 0
-10 -168 0
-168 169 0
-167 169 0
-166 169 0
166 167 168 -169 0
11 -75 170 0
-11 -170 0
75 -170 0
-75 -169 171 0
169 -171 0
75 -171 0
11 -169 172 0
169 -172 0
-11 -172 0
-172 173 0
-171 173 0
-170 173 0
170 171 172 -173 0
12 -76 174 0
-12 -174 0
76 -174 0
-76 -173 175 0
173 -175 0
76 -175 0
12 -173 176 0
173 -176 0
-12 -176 0
-176 177 0
-175 177 0
-174 177 0
174 175 176 -177 0
13 -77 178 0
-13 -178 0
77 -178 0
-77 -177 179 0
177 -179 0
77 -179 0
13 -177 180 0
177 -180 0
-13 -180 0
-180 181 0
-179 181 0
-178 181 0
178 179 180 -181 0
14 -78 182 0
-14 -182 0
78 -182 0
-78 -181 183 0
181 -183 0
78 -183 0
14 -181 184 0
181 -184 0
-14 -184 0
-184 185 0
-183 185 0
-182 185 0
182 183 184 -185 0
15 -79 186 0
-15 -186 0
79 -186 0
-79 -185 187 0
185 -187 0
79 -187 0
15 -185 188 0
185 -188 0
-15 -188 0
-188 189 0
-187 189 0
-186 189 0
186 187 188 -189 0
16 -80 190 0
-16 -190 0
80 -190 0
-80 -189 191 0
189 -191 0
80 -191 0
16 -189 192 0
189 -192 0
-16 -192 0
-192 193 0
-191 193 0
-190 193 0
190 191 192 -193 0
17 -81 194 0
-17 -194 0
81 -194 0
-81 -193 195 0
193 -195 0
81 -195 0
17 -193 196 0
193 -196 0
-17 -196 0
-196 197 0
-195 197 0
-194 197 0
194 195 196 -197 0
18 -82 198 0
-18 -198 0
82 -198 0
-82 -197 199 0
197 -199 0
82 -199 0
18 -197 200 0
197 -200 0
-18 -200 0
-200 201 0
-199 201 0
-198 201 0
198 199 200 -201 0
19 -83 202 0
-19 -202 0
83 -202 0
-83 -201 203 0
201 -203 0
83 -203 0
19 -201 204 0
201 -204 0
-19 -204 0
-204 205 0
-203 205 0
-202 205 0
202 203 204 -205 0
20 -84 206 0
-20 -206 0
84 -206 0
-84 -205 207 0
205 -207 0
84 -207 0
20 -205 208 0
205 -208 0
-20 -208 0
-208 209 0
-207 209 0
-206 209 0
206 207 208 -209 0
21 -85 210 0
-21 -210 0
85 -210 0
-85 -209 211 0
209 -211 0
85 -211 0
21 -209 212 0
209 -212 0
-21 -212 0
-212 213 0
-211 213 0
-210 213 0
210 211 212 -213 0
22 -86 214 0
-22 -214 0
86 -214 0
-86 -213 215 0
213 -215 0
86 -215 0
22 -213 216 0
213 -216 0
-22 -216 0
-216 217 0
-215 217 0
-214 217 0
214 215 216 -217 0
23 -87 218 0
-23 -218 0
87 -218 0
-87 -217 219 0
217 -219 0
87 -219 0
23 -217 220 0
217 -220 0
-23 -220 0
-220 221 0
-219 221 0
-218 221 0
218 219 220 -221 0
24 -88 222 0
-24 -222 0
88 -222 0
-88 -221 223 0
221 -223 0
88 -223 0
24 -221 224 0
221 -224 0
-24 -224 0
-224 225 0
-223 225 0
-222 225 0
222 223 224 -225 0
25 -89 226 0
-25 -226 0
89 -226 0
-89 -225 227 0
225 -227 0
89 -227 0
25 -225 228 0
225 -228 0
-25 -228 0
-228 229 0
-227 229 0
-226 229 0
226 227 228 -229 0
26 -90 230 0
-26 -230 0
90 -230 0
-90 -229 231 0
229 -231 0
90 -231 0
26 -229 232 0
229 -232 0
-26 -232 0
-232 233 0
-231 233 0
-230 233 0
230 231 232 -233 0
27 -91 234 0
-27 -234 0
91 -234 0
-91 -233 235 0
233 -235 0
91 -235 0
27 -233 236 0
233 -236 0
-27 -236 0
-236 237 0
-235 237 0
-234 237 0
234 235 236 -237 0
28 -92 238 0
-28 -238 0
92 -238 0
-92 -237 239 0
237 -239 0
92 -239 0
28 -237 240 0
237 -240 0
-28 -240 0
-240 241 0
-239 241 0
-238 241 0
238 239 240 -241 0
29 -93 242 0
-29 -242 0
93 -242 0
-93 -241 243 0
241 -243 0
93 -243 0
29 -241 244 0
241 -244 0
-29 -244 0
-244 245 0
-243 245 0
-242 245 0
242 243 244 -245 0
30 -94 246 0
-30 -246 0
94 -246 0
-94 -245 247 0
245 -247 0
94 -247 0
30 -245 248 0
245 -248 0
-30 -248 0
-248 249 0
-247 249 0
-246 249 0
246 247 248 -249 0
31 -95 250 0
-31 -250 0
95 -250 0
-95 -249 251 0
249 -251 0
95 -251 0
31 -249 252 0
249 -252 0
-31 -252 0
-252 253 0
-251 253 0
-250 253 0
250 251 252 -253 0
32 -96 254 0
-32 -254 0
96 -254 0
-96 -253 255 0
253 -255 0
96 -255 0
32 -253 256 0
253 -256 0
-32 -256 0
-256 257 0
-255 257 0
-254 257 0
254 255 256 -257 0
33 -97 258 0
-33 -258 0
97 -258 0
-97 -257 259 0
257 -259 0
97 -259 0
33 -257 260 0
257 -260 0
-33 -260 0
-260 261 0
-259 261 0
-258 261 0
258 259 260 -261 0
34 -98 262 0
-34 -262 0
98 -262 0
-98 -261 263 0
261 -263 0
98 -263 0
34 -261 264 0
261 -264 0
-34 -264 0
-264 265 0
-263 265 0
-262 265 0
262 263 264 -265 0
35 -99 266 0
-35 -266 0
99 -266 0
-99 -265 267 0
265 -267 0
99 -267 0
35 -265 268 0
265 -268 0
-35 -268 0
-268 269 0
-267 269 0
-266 269 0
266 267 268 -269 0
36 -100 270 0
-36 -270 0
100 -270 0
-100 -269 271 0
269 -271 0
100 -271 0
36 -269 272 0
269 -272 0
-36 -272 0
-272 273 0
-271 273 0
-270 273 0
270 271 272 -273 0
37 -101 274 0
-37 -274 0
101 -274 0
-101 -273 275 0
273 -275 0
101 -275 0
37 -273 276 0
273 -276 0
-37 -276 0
-276 277 0
-275 277 0
-274 277 0
274 275 276 -277 0
38 -102 278 0
-38 -278 0
102 -278 0
-102 -277 279 0
277 -279 0
102 -279 0
38 -277 280 0
277 -280 0
-38 -280 0
-280 281 0
-279 281 0
-278 281 0
278 279 280 -281 0
39 -103 282 0
-39 -282 0
103 -282 0
-103 -281 283 0
281 -283 0
103 -283 0
39 -281 284 0
281 -284 0
-39 -284 0
-284 285 0
-283 285 0
-282 285 0
282 283 284 -285 0
40 -104 286 0
-40 -286 0
104 -286 0
-104 -285 287 0
285 -287 0
104 -287 0
40 -285 288 0
285 -288 0
-40 -288 0
-288 289 0
-287 289 0
-286 289 0
286 287 288 -289 0
41 -105 290 0
-41 -290 0
105 -290 0
-105 -289 291 0
289 -291 0
105 -291 0
41 -289 292 0
289 -292 0
-41 -292 0
-292 293 0
-291 293 0
-290 293 0
290 291 292 -293 0
42 -106 294 0
-42 -294 0
106 -294 0
-106 -293 295 0
293 -295 0
106 -295 0
42 -293 296 0
293 -296 0
-42 -296 0
-296 297 0
-295 297 0
-294 297 0
294 295 296 -297 0
43 -107 298 0
-43 -298 0
107 -298 0
-107 -297 299 0
297 -299 0
107 -299 0
43 -297 300 0
297 -300 0
-43 -300 0
-300 301 0
-299 301 0
-298 301 0
298 299 300 -301 0
44 -108 302 0
-44 -302 0
108 -302 0
-108 -301 303 0
301 -303 0
108 -303 0
44 -301 304 0
301 -304 0
-44 -304 0
-304 305 0
-303 305 0
-302 305 0
302 303 304 -305 0
45 -109 306 0
-45 -306 0
109 -306 0
-109 -305 307 0
305 -307 0
109 -307 0
45 -305 308 0
305 -308 0
-45 -308 0
-308 309 0
-307 309 0
-306 309 0
306 307 308 -309 0
46 -110 310 0
-46 -310 0
110 -310 0
-110 -309 311 0
309 -311 0
110 -311 0
46 -309 312 0
309 -312 0
-46 -312 0
-312 313 0
-311 313 0
-310 313 0
310 311 312 -313 0
47 -111 314 0
-47 -314 0
111 -314 0
-111 -313 315 0
313 -315 0
111 -315 0
47 -313 316 0
313 -316 0
-47 -316 0
-316 317 0
-315 317 0
-314 317 0
314 315 316 -317 0
48 -112 318 0
-48 -318 0
112 -318 0
-112 -317 319 0
317 -319 0
112 -319 0
48 -317 320 0
317 -320 0
-48 -320 0
-320 321 0
-319 321 0
-318 321 0
318 319 320 -321 0
49 -113 322 0
-49 -322 0
113 -322 0
-113 -321 323 0
321 -323 0
113 -323 0
49 -321 324 0
321 -324 0
-49 -324 0
-324 325 0
-323 325 0
-322 325 0
322 323 324 -325 0
50 -114 326 0
-50 -326 0
114 -326 0
-114 -325 327 0
325 -327 0
114 -327 0
50 -325 328 0
325 -328 0
-50 -328 0
-328 329 0
-327 329 0
-326 329 0
326 327 328 -329 0
51 -115 330 0
-51 -330 0
115 -330 0
-115 -329 331 0
329 -331 0
115 -331 0
51 -329 332 0
329 -332 0
-51 -332 0
-332 333 0
-331 333 0
-330 333 0
330 331 332 -333 0
52 -116 334 0
-52 -334 0
116 -334 0
-116 -333 335 0
333 -335 0
116 -335 0
52 -333 336 0
333 -336 0
-52 -336 0
-336 337 0
-335 337 0
-334 337 0
334 335 336 -337 0
53 -117 338 0
-53 -338 0
117 -338 0
-117 -337 339 0
337 -339 0
117 -339 0
53 -337 340 0
337 -340 0
-53 -340 0
-340 341 0
-339 341 0
-338 341 0
338 339 340 -341 0
54 -118 342 0
-54 -342 0
118 -342 0
-118 -341 343 0
341 -343 0
118 -343 0
54 -341 344 0
341 -344 0
-54 -344 0
-344 345 0
-343 345 0
-342 345 0
342 343 344 -345 0
55 -119 346 0
-55 -346 0
119 -346 0
-119 -345 347 0
345 -347 0
119 -347 0
55 -345 348 0
345 -348 0
-55 -348 0
-348 349 0
-347 349 0
-346 349 0
346 347 348 -349 0
56 -120 350 0
-56 -350 0
120 -350 0
-120 -349 351 0
349 -351 0
120 -351 0
56 -349 352 0
349 -352 0
-56 -352 0
-352 353 0
-351 353 0
-350 353 0
350 351 352 -353 0
57 -121 354 0
-57 -354 0
121 -354 0
-121 -353 355 0
353 -355 0
121 -355 0
57 -353 356 0
353 -356 0
-57 -356 0
-356 357 0
-355 357 0
-354 357 0
354 355 356 -357 0
58 -122 358 0
-58 -358 0
122 -358 0
-122 -357 359 0
357 -359 0
122 -359 0
58 -357 360 0
357 -360 0
-58 -360 0
-360 361 0
-359 361 0
-358 361 0
358 359 360 -361 0
59 -123 362 0
-59 -362 0
123 -362 0
-123 -361 363 0
361 -363 0
123 -363 0
59 -361 364 0
361 -364 0
-59 -364 0
-364 365 0
-363 365 0
-362 365 0
362 363 364 -365 0
60 -124 366 0
-60 -366 0
124 -366 0
-124 -365 367 0
365 -367 0
124 -367 0
60 -365 368 0
365 -368 0
-60 -368 0
-368 369 0
-367 369 0
-366 369 0
366 367 368 -369 0
61 -125 370 0
-61 -370 0
125 -370 0
-125 -369 371 0
369 -371 0
125 -371 0
61 -369 372 0
369 -372 0
-61 -372 0
-372 373 0
-371 373 0
-370 373 0
370 371 372 -373 0
62 -126 374 0
-62 -374 0
126 -374 0
-126 -373 375 0
373 -375 0
126 -375 0
62 -373 376 0
373 -376 0
-62 -376 0
-376 377 0
-375 377 0
-374 377 0
374 375 376 -377 0
63 -127 378 0
-63 -378 0
127 -378 0
-127 -377 379 0
377 -379 0
127 -379 0
63 -377 380 0
377 -380 0
-63 -380 0
-380 381 0
-379 381 0
-378 381 0
378 379 380 -381 0
64 -128 382 0
-64 -382 0
128 -382 0
-128 -381 383 0
381 -383 0
128 -383 0
64 -381 384 0
381 -384 0
-64 -384 0
-384 385 0
-383 385 0
-382 385 0
382 383 384 -385 0
-64 128 386 0
64 -128 386 0
64 128 -386 0
-64 -128 -386 0
-131 387 0
-385 -386 387 0
385 386 387 0
385 -386 -387 0
-385 386 -387 0
389 0
-387 -388 -389 0
1 -65 390 0
-1 65 390 0
1 65 -390 0
-1 -65 -390 0
2 -66 391 0
-2 66 391 0
2 66 -391 0
-2 -66 -391 0
3 -67 392 0
-3 67 392 0
3 67 -392 0
-3 -67 -392 0
4 -68 393 0
-4 68 393 0
4 68 -393 0
-4 -68 -393 0
5 -69 394 0
-5 69 394 0
5 69 -394 0
-5 -69 -394 0
6 -70 395 0
-6 70 395 0
6 70 -395 0
-6 -70 -395 0
7 -71 396 0
-7 71 396 0
7 71 -396 0
-7 -71 -396 0
8 -72 397 0
-8 72 397 0
8 72 -397 0
-8 -72 -397 0
9 -73 398 0
-9 73 398 0
9 73 -398 0
-9 -73 -398 0
10 -74 399 0
-10 74 399 0
10 74 -399 0
-10 -74 -399 0
11 -75 400 0
-11 75 400 0
11 75 -400 0
-11 -75 -400 0
12 -76 401 0
-12 76 401 0
12 76 -401 0
-12 -76 -401 0
13 -77 402 0
-13 77 402 0
13 77 -402 0
-13 -77 -402 0
14 -78 403 0
-14 78 403 0
14 78 -403 0
-14 -78 -403 0
15 -79 404 0
-15 79 404 0
15 79 -404 0
-15 -79 -404 0
16 -80 405 0
-16 80 405 0
16 80 -405 0
-16 -80 -405 0
17 -81 406 0
-17 81 406 0
17 81 -406 0
-17 -81 -406 0
18 -82 407 0
-18 82 407 0
18 82 -407 0
-18 -82 -407 0
19 -83 408 0
-19 83 408 0
19 83 -408 0
-19 -83 -408 0
20 -84 409 0
-20 84 409 0
20 84 -409 0
-20 -84 -409 0
21 -85 410 0
-21 85 410 0
21 85 -410 0
-21 -85 -410 0
22 -86 411 0
-22 86 411 0
22 86 -411 0
-22 -86 -411 0
23 -87 412 0
-23 87 412 0
23 87 -412 0
-23 -87 -412 0
24 -88 413 0
-24 88 413 0
24 88 -413 0
-24 -88 -413 0
25 -89 414 0
-25 89 414 0
25 89 -414 0
-25 -89 -414 0
26 -90 415 0
-26 90 415 0
26 90 -415 0
-26 -90 -415 0
27 -91 416 0
-27 91 416 0
27 91 -416 0
-27 -91 -416 0
28 -92 417 0
-28 92 417 0
28 92 -417 0
-28 -92 -417 0
29 -93 418 0
-29 93 418 0
29 93 -418 0
-29 -93 -418 0
30 -94 419 0
-30 94 419 0
30 94 -419 0
-30 -94 -419 0
31 -95 420 0
-31 95 420 0
31 95 -420 0
-31 -95 -420 0
32 -96 421 0
-32 96 421 0
32 96 -421 0
-32 -96 -421 0
33 -97 422 0
-33 97 422 0
33 97 -422 0
-33 -97 -422 0
34 -98 423 0
-34 98 423 0
34 98 -423 0
-34 -98 -423 0
35 -99 424 0
-35 99 424 0
35 99 -424 0
-35 -99 -424 0
36 -100 425 0
-36 100 425 0
36 100 -425 0
-36 -100 -425 0
37 -101 426 0
-37 101 426 0
37 101 -426 0
-37 -101 -426 0
38 -102 427 0
-38 102 427 0
38 102 -427 0
-38 -102 -427 0
39 -103 428 0
-39 103 428 0
39 103 -428 0
-39 -103 -428 0
40 -104 429 0
-40 104 429 0
40 104 -429 0
-40 -104 -429 0
41 -105 430 0
-41 105 430 0
41 105 -430 0
-41 -105 -430 0
42 -106 431 0
-42 106 431 0
42 106 -431 0
-42 -106 -431 0
43 -107 432 0
-43 107 432 0
43 107 -432 0
-43 -107 -432 0
44 -108 433 0
-44 108 433 0
44 108 -433 0
-44 -108 -433 0
45 -109 434 0
-45 109 434 0
45 109 -434 0
-45 -109 -434 0
46 -110 435 0
-46 110 435 0
46 110 -435 0
-46 -110 -435 0
47 -111 436 0
-47 111 436 0
47 111 -436 0
-47 -111 -436 0
48 -112 437 0
-48 112 437 0
48 112 -437 0
-48 -112 -437 0
49 -113 438 0
-49 113 438 0
49 113 -438 0
-49 -113 -438 0
50 -114 439 0
-50 114 439 0
50 114 -439 0
-50 -114 -439 0
51 -115 440 0
-51 115 440 0
51 115 -440 0
-51 -115 -440 0
52 -116 441 0
-52 116 441 0
52 116 -441 0
-52 -116 -441 0
53 -117 442 0
-53 117 442 0
53 117 -442 0
-53 -117 -442 0
54 -118 443 0
-54 118 443 0
54 118 -443 0
-54 -118 -443 0
55 -119 444 0
-55 119 444 0
55 119 -444 0
-55 -119 -444 0
56 -120 445 0
-56 120 445 0
56 120 -445 0
-56 -120 -445 0
57 -121 446 0
-57 121 446 0
57 121 -446 0
-57 -121 -446 0
58 -122 447 0
-58 122 447 0
58 122 -447 0
-58 -122 -447 0
59 -123 448 0
-59 123 448 0
59 123 -448 0
-59 -123 -448 0
60 -124 449 0
-60 124 449 0
60 124 -449 0
-60 -124 -449 0
61 -125 450 0
-61 125 450 0
61 125 -450 0
-61 -125 -450 0
62 -126 451 0
-62 126 451 0
62 126 -451 0
-62 -126 -451 0
63 -127 452 0
-63 127 452 0
63 127 -452 0
-63 -127 -452 0
64 -128 453 0
-64 128 453 0
64 128 -453 0
-64 -128 -453 0
390 391 392 393 394 395 396 397 398 399 400 401 402 403 404 405 406 407 408 409 410 411 412 413 414 415 416 417 418 419 420 421 422 423 424 425 426 427 428 429 430 431 432 433 434 435 436 437 438 439 440 441 442 443 444 445 446 447 448 449 450 451 452 453 454 0
-453 -454 0
-452 -454 0
-451 -454 0
-450 -454 0
-449 -454 0
-448 -454 0
-447 -454 0
-446 -454 0
-445 -454 0
-444 -454 0
-443 -454 0
-442 -454 0
-441 -454 0
-440 -454 0
-439 -454 0
-438 -454 0
-437 -454 0
-436 -454 0
-435 -454 0
-434 -454 0
-433 -454 0
-432 -454 0
-431 -454 0
-430 -454 0
-429 -454 0
-428 -454 0
-427 -454 0
-426 -454 0
-425 -454 0
-424 -454 0
-423 -454 0
-422 -454 0
-421 -454 0
-420 -454 0
-419 -454 0
-418 -454 0
-417 -454 0
-416 -454 0
-415 -454 0
-414 -454 0
-413 -454 0
-412 -454 0
-411 -454 0
-410 -454 0
-409 -454 0
-408 -454 0
-407 -454 0
-406 -454 0
-405 -454 0
-404 -454 0
-403 -454 0
-402 -454 0
-401 -454 0
-400 -454 0
-399 -454 0
-398 -454 0
-397 -454 0
-396 -454 0
-395 -454 0
-394 -454 0
-393 -454 0
-392 -454 0
-391 -454 0
-390 -454 0
455 -519 583 0
-455 519 583 0
455 519 -583 0
-455 -519 -583 0
456 -520 584 0
-456 520 584 0
456 520 -584 0
-456 -520 -584 0
457 -521 585 0
-457 521 585 0
457 521 -585 0
-457 -521 -585 0
458 -522 586 0
-458 522 586 0
458 522 -586 0
-458 -522 -586 0
459 -523 587 0
-459 523 587 0
459 523 -587 0
-459 -523 -587 0
460 -524 588 0
-460 524 588 0
460 524 -588 0
-460 -524 -588 0
461 -525 589 0
-461 525 589 0
461 525 -589 0
-461 -525 -589 0
462 -526 590 0
-462 526 590 0
462 526 -590 0
-462 -526 -590 0
463 -527 591 0
-463 527 591 0
463 527 -591 0
-463 -527 -591 0
464 -528 592 0
-464 528 592 0
464 528 -592 0
-464 -528 -592 0
465 -529 593 0
-465 529 593 0
465 529 -593 0
-465 -529 -593 0
466 -530 594 0
-466 530 594 0
466 530 -594 0
-466 -530 -594 0
467 -531 595 0
-467 531 595 0
467 531 -595 0
-467 -531 -595 0
468 -532 596 0
-468 532 596 0
468 532 -596 0
-468 -532 -596 0
469 -533 597 0
-469 533 597 0
469 533 -597 0
-469 -533 -597 0
470 -534 598 0
-470 534 598 0
470 534 -598 0
-470 -534 -598 0
471 -535 599 0
-471 535 599 0
471 535 -599 0
-471 -535 -599 0
472 -536 600 0
-472 536 600 0
472 536 -600 0
-472 -536 -600 0
473 -537 601 0
-473 537 601 0
473 537 -601 0
-473 -537 -601 0
474 -538 602 0
-474 538 602 0
474 538 -602 0
-474 -538 -602 0
475 -539 603 0
-475 539 603 0
475 539 -603 0
-475 -539 -603 0
476 -540 604 0
-476 540 604 0
476 540 -604 0
-476 -540 -604 0
477 -541 605 0
-477 541 605 0
477 541 -605 0
-477 -541 -605 0
478 -542 606 0
-478 542 606 0
478 542 -606 0
-478 -542 -606 0
479 -543 607 0
-479 543 607 0
479 543 -607 0
-479 -543 -607 0
480 -544 608 0
-480 544 608 0
480 544 -608 0
-480 -544 -608 0
481 -545 609 0
-481 545 609 0
481 545 -609 0
-481 -545 -609 0
482 -546 610 0
-482 546 610 0
482 546 -610 0
-482 -546 -610 0
483 -547 611 0
-483 547 611 0
483 547 -611 0
-483 -547 -611 0
484 -548 612 0
-484 548 612 0
484 548 -612 0
-484 -548 -612 0
485 -549 613 0
-485 549 613 0
485 549 -613 0
-485 -549 -613 0
486 -550 614 0
-486 550 614 0
486 550 -614 0
-486 -550 -614 0
487 -551 615 0
-487 551 615 0
487 551 -615 0
-487 -551 -615 0
488 -552 616 0
-488 552 616 0
488 552 -616 0
-488 -552 -616 0
489 -553 617 0
-489 553 617 0
489 553 -617 0
-489 -553 -617 0
490 -554 618 0
-490 554 618 0
490 554 -618 0
-490 -554 -618 0
491 -555 619 0
-491 555 619 0
491 555 -619 0
-491 -555 -619 0
492 -556 620 0
-492 556 620 0
492 556 -620 0
-492 -556 -620 0
493 -557 621 0
-493 557 621 0
493 557 -621 0
-493 -557 -621 0
494 -558 622 0
-494 558 622 0
494 558 -622 0
-494 -558 -622 0
495 -559 623 0
-495 559 623 0
495 559 -623 0
-495 -559 -623 0
496 -560 624 0
-496 560 624 0
496 560 -624 0
-496 -560 -624 0
497 -561 625 0
-497 561 625 0
497 561 -625 0
-497 -561 -625 0
498 -562 626 0
-498 562 626 0
498 562 -626 0
-498 -562 -626 0
499 -563 627 0
-499 563 627 0
499 563 -627 0
-499 -563 -627 0
500 -564 628 0
-500 564 628 0
500 564 -628 0
-500 -564 -628 0
501 -565 629 0
-501 565 629 0
501 565 -629 0
-501 -565 -629 0
502 -566 630 0
-502 566 630 0
502 566 -630 0
-502 -566 -630 0
503 -567 631 0
-503 567 631 0
503 567 -631 0
-503 -567 -631 0
504 -568 632 0
-504 568 632 0
504 568 -632 0
-504 -568 -632 0
505 -569 633 0
-505 569 633 0
505 569 -633 0
-505 -569 -633 0
506 -570 634 0
-506 570 634 0
506 570 -634 0
-506 -570 -634 0
507 -571 635 0
-507 571 635 0
507 571 -635 0
-507 -571 -635 0
508 -572 636 0
-508 572 636 0
508 572 -636 0
-508 -572 -636 0
509 -573 637 0
-509 573 637 0
509 573 -637 0
-509 -573 -637 0
510 -574 638 0
-510 574 638 0
510 574 -638 0
-510 -574 -638 0
511 -575 639 0
-511 575 639 0
511 575 -639 0
-511 -575 -639 0
512 -576 640 0
-512 576 640 0
512 576 -640 0
-512 -576 -640 0
513 -577 641 0
-513 577 641 0
513 577 -641 0
-513 -577 -641 0
514 -578 642 0
-514 578 642 0
514 578 -642 0
-514 -578 -642 0
515 -579 643 0
-515 579 643 0
515 579 -643 0
-515 -579 -643 0
516 -580 644 0
-516 580 644 0
516 580 -644 0
-516 -580 -644 0
517 -581 645 0
-517 581 645 0
517 581 -645 0
-517 -581 -645 0
518 -582 646 0
-518 582 646 0
518 582 -646 0
-518 -582 -646 0
-454 647 0
583 584 585 586 587 588 589 590 591 592 593 594 595 596 597 598 599 600 601 602 603 604 605 606 607 608 609 610 611 612 613 614 615 616 617 618 619 620 621 622 623 624 625 626 627 628 629 630 631 632 633 634 635 636 637 638 639 640 641 642 643 644 645 646 647 0
-646 -647 0
-645 -647 0
-644 -647 0
-643 -647 0
-642 -647 0
-641 -647 0
-640 -647 0
-639 -647 0
-638 -647 0
-637 -647 0
-636 -647 0
-635 -647 0
-634 -647 0
-633 -647 0
-632 -647 0
-631 -647 0
-630 -647 0
-629 -647 0
-628 -647 0
-627 -647 0
-626 -647 0
-625 -647 0
-624 -647 0
-623 -647 0
-622 -647 0
-621 -647 0
-620 -647 0
-619 -647 0
-618 -647 0
-617 -647 0
-616 -647 0
-615 -647 0
-614 -647 0
-613 -647 0
-612 -647 0
-611 -647 0
-610 -647 0
-609 -647 0
-608 -647 0
-607 -647 0
-606 -647 0
-605 -647 0
-604 -647 0
-603 -647 0
-602 -647 0
-601 -647 0
-600 -647 0
-599 -647 0
-598 -647 0
-597 -647 0
-596 -647 0
-595 -647 0
-594 -647 0
-593 -647 0
-592 -647 0
-591 -647 0
-590 -647 0
-589 -647 0
-588 -647 0
-587 -647 0
-586 -647 0
-585 -647 0
-584 -647 0
-583 -647 0
